QBPP_HJ*_45_025_10_4
45 210 8
31 6 38 38 23 13 18 38 38 12 33 21 16 19 11 33 20 50 12 10 43 23 24 38 16 43 37 12 9 12 2 45 16 11 2 26 4 46 1 12 10 36 32 42 24
    0    0    0    0    0    0  -31    0    0    0    0    0    0    0    0    0  -31    0    0    0    0    0    0    0   48    0    0    0   22    0    0    0    0    0    0    0    0    0    0    0    0    0    0    0    0
    0    0   42    0   -9    0    0    0    0   10  -38   18    0    0    0    0    0    0    0    0    0    0    0  -45    0    0    0    0  -44    0    0    0    0    0    0    0  -22    0    0    0    0    0    0    0  -11
    0   42    0    0    0    0    0  -42    0    0    0    0    0    0    0    0    0    0    0    0    0    0    0    0  -49    0    0    0    0    0    0   48    0    0    0   22    0    0   45    0  -36    0  -24    0    0
    0    0    0    0    0    0    0    0  -45  -33    0   23    0    0    0    0    0    0    1    0    0    0    0    0    0    0   26    0  -49  -23    0    0    0   24  -29    0    0   30    0   20    0    0    0    0  -16
    0   -9    0    0    0    0    0    0   -4    0    0    0    0    0    0    0    0  -36    0    0   45    0    0  -46    0    0  -44   28    0    0    0    0    0    0    0   -2    0    0    0    0    0    0    0    0    0
    0    0    0    0    0    0    0    0  -13  -47    0  -32    0    0    0    0    0    8    0    0    0    0    0    0    0    0    0    6    4    0  -29   42    0    0   45    0    0    0   11    0    0    0    0    0    0
  -31    0    0    0    0    0    0    0    0   13    0    0    0   36    0  -37   46    0    0    0    0  -20    9   30    0    0    0    0  -17    0    0    0    0    0    0    0    0    0  -15  -42    0    0    0    0    0
    0    0  -42    0    0    0    0    0  -14    0   37   24    0    0    0    0    0    0    0  -10    0    0  -32    0    0   46    0    0    0    0  -29  -42    0    0    0    0    0    0    7    0    0    0    0    0    0
    0    0    0  -45   -4  -13    0  -14    0    0    0    0    0    0  -50    0    0   23    0    0    0    0    0    0    0    0   40    0  -11    0   44    0    0   34    0    0    0    0    0    0    0    0   13    0    0
    0   10    0  -33    0  -47   13    0    0    0    0    0    0    0    0    0    0    0    0    0    0  -26    0    0    0  -36    0    0    0  -46    0    0    0    0    0   20    9    0    0    0    0    0    0  -35    0
    0  -38    0    0    0    0    0   37    0    0    0    0    0    0    0   27    0   31  -43    0   45   23    0    0   49    0   -8    0    0    0    0    0   -4    0    0    0    0    0    0  -41    0    0   40    0    0
    0   18    0   23    0  -32    0   24    0    0    0    0  -47    0    0    0    0    0   33    0   -2    0    0    0    0    0  -14    0    0    0    0    0    0    0   15    0    0    0  -28    0   41    0    0  -19    0
    0    0    0    0    0    0    0    0    0    0    0  -47    0    0    0    0    0    0  -36    0    0    0    0   28  -24    0    0   44    0    0  -42    0    0    0    0    0    0    0    0    0    0    0    0  -24    0
    0    0    0    0    0    0   36    0    0    0    0    0    0    0    8    0    0    0  -44    0    0    0    0   24    0  -20    0    0    0    0    0    0  -39    0    0   35  -40    0   45    0    0    0    0    0   45
    0    0    0    0    0    0    0    0  -50    0    0    0    0    8    0    0   28    0   43    0    0   32    0    0    0  -27    0  -44    0    0   -4    0   20    0    0    0    0  -41    0    8    0   33    0    0    0
    0    0    0    0    0    0  -37    0    0    0   27    0    0    0    0    0    0    0  -20    0   37  -23    0  -18    0    0    0  -43    0    0   46    0  -34    0    0    0    0    0    0    0    0    0    0    0    0
  -31    0    0    0    0    0   46    0    0    0    0    0    0    0   28    0    0    0   49    0    0    0    0    3  -41   -2    2    3    0    0    0    4    0    0    0    0    0    0    0  -43    0    0    0    0    0
    0    0    0    0  -36    8    0    0   23    0   31    0    0    0    0    0    0    0    0    0   13    0    0    0    0    0    0    0    0    0  -16    0    0  -12    0    0    0    0    0   38   20    0    0    0   49
    0    0    0    1    0    0    0    0    0    0  -43   33  -36  -44   43  -20   49    0    0    0    0    0    0    2    0    0    0    0   19    0    0    0    0    0    0    0   26    0    0    0   12   41  -33    0    0
    0    0    0    0    0    0    0  -10    0    0    0    0    0    0    0    0    0    0    0    0    0   30  -23  -38    0    7    0    0    1    0    0    0    0    0    0    0   34    0   26    0   24   47    0  -32    0
    0    0    0    0   45    0    0    0    0    0   45   -2    0    0    0   37    0   13    0    0    0    0    0  -37    0    0   -1    1    0    3   27  -34    0    0    0    0    0    0    0    0  -24  -33    0    0    0
    0    0    0    0    0    0  -20    0    0  -26   23    0    0    0   32  -23    0    0    0   30    0    0    0    0    0   32  -23    0    0    0   15    0    0    0   19    0    0  -15    0    0  -19  -39    0    0    0
    0    0    0    0    0    0    9  -32    0    0    0    0    0    0    0    0    0    0    0  -23    0    0    0    0   -1    0    0    0    0    0    0    0    0    4    0    0  -35    0    0    0  -14    0    0    0    0
    0  -45    0    0  -46    0   30    0    0    0    0    0   28   24    0  -18    3    0    2  -38  -37    0    0    0    0    0    4   27  -19    0    0    0    0    0    0    0    0    0    0    0    0    0    0    0    0
   48    0  -49    0    0    0    0    0    0    0   49    0  -24    0    0    0  -41    0    0    0    0    0   -1    0    0    0  -24   41    0    0    0    0    0    0    0    0    2    0   13    0   33  -50    0    0    0
    0    0    0    0    0    0    0   46    0  -36    0    0    0  -20  -27    0   -2    0    0    7    0   32    0    0    0    0    0    0    0    0  -39    0    0    0    0    0    0    0   10    0   50    0    0   17    0
    0    0    0   26  -44    0    0    0   40    0   -8  -14    0    0    0    0    2    0    0    0   -1  -23    0    4  -24    0    0    0    0   37    0    0    0    0    0    0  -35    0   24  -49    0    6    0  -46    0
    0    0    0    0   28    6    0    0    0    0    0    0   44    0  -44  -43    3    0    0    0    1    0    0   27   41    0    0    0   27    0    0    0    0    0    0    0    0  -43    0  -31  -46    0    0    0   40
   22  -44    0  -49    0    4  -17    0  -11    0    0    0    0    0    0    0    0    0   19    1    0    0    0  -19    0    0    0   27    0    0    0    0   43    0    0    0    0    0    0    0    9    0    0   -8   16
    0    0    0  -23    0    0    0    0    0  -46    0    0    0    0    0    0    0    0    0    0    3    0    0    0    0    0   37    0    0    0    0    0  -47    0    9    0    0   24    0    0  -29   16    0    0    0
    0    0    0    0    0  -29    0  -29   44    0    0    0  -42    0   -4   46    0  -16    0    0   27   15    0    0    0  -39    0    0    0    0    0    0    0    0    0    0    0    0  -37    0    0   40    0   23    0
    0    0   48    0    0   42    0  -42    0    0    0    0    0    0    0    0    4    0    0    0  -34    0    0    0    0    0    0    0    0    0    0    0  -39    0   24    0    0    0    0    0    0    0    0    0    0
    0    0    0    0    0    0    0    0    0    0   -4    0    0  -39   20  -34    0    0    0    0    0    0    0    0    0    0    0    0   43  -47    0  -39    0    0  -29    0  -13    0    0    0  -18    0    0    0    0
    0    0    0   24    0    0    0    0   34    0    0    0    0    0    0    0    0  -12    0    0    0    0    4    0    0    0    0    0    0    0    0    0    0    0    0    0    0    0  -39    0    0    0    0   12   50
    0    0    0  -29    0   45    0    0    0    0    0   15    0    0    0    0    0    0    0    0    0   19    0    0    0    0    0    0    0    9    0   24  -29    0    0    0    0  -40   18    0    0    0    0    0    0
    0    0   22    0   -2    0    0    0    0   20    0    0    0   35    0    0    0    0    0    0    0    0    0    0    0    0    0    0    0    0    0    0    0    0    0    0    0    0    0    0    0   -3   35  -20    0
    0  -22    0    0    0    0    0    0    0    9    0    0    0  -40    0    0    0    0   26   34    0    0  -35    0    2    0  -35    0    0    0    0    0  -13    0    0    0    0    0    0  -23    0   44   26  -29    0
    0    0    0   30    0    0    0    0    0    0    0    0    0    0  -41    0    0    0    0    0    0  -15    0    0    0    0    0  -43    0   24    0    0    0    0  -40    0    0    0    0  -20    0    0    0  -37    0
    0    0   45    0    0   11  -15    7    0    0    0  -28    0   45    0    0    0    0    0   26    0    0    0    0   13   10   24    0    0    0  -37    0    0  -39   18    0    0    0    0  -35    0    0    0    0    0
    0    0    0   20    0    0  -42    0    0    0  -41    0    0    0    8    0  -43   38    0    0    0    0    0    0    0    0  -49  -31    0    0    0    0    0    0    0    0  -23  -20  -35    0    4    0    0    0    0
    0    0  -36    0    0    0    0    0    0    0    0   41    0    0    0    0    0   20   12   24  -24  -19  -14    0   33   50    0  -46    9  -29    0    0  -18    0    0    0    0    0    0    4    0    0    0    0    0
    0    0    0    0    0    0    0    0    0    0    0    0    0    0   33    0    0    0   41   47  -33  -39    0    0  -50    0    6    0    0   16   40    0    0    0    0   -3   44    0    0    0    0    0    0    1    0
    0    0  -24    0    0    0    0    0   13    0   40    0    0    0    0    0    0    0  -33    0    0    0    0    0    0    0    0    0    0    0    0    0    0    0    0   35   26    0    0    0    0    0    0   -4    0
    0    0    0    0    0    0    0    0    0  -35    0  -19  -24    0    0    0    0    0    0  -32    0    0    0    0    0   17  -46    0   -8    0   23    0    0   12    0  -20  -29  -37    0    0    0    1   -4    0    0
    0  -11    0  -16    0    0    0    0    0    0    0    0    0   45    0    0    0   49    0    0    0    0    0    0    0    0    0   40   16    0    0    0    0   50    0    0    0    0    0    0    0    0    0    0    0
